sat
(
  (define-fun C3_VM5 () Int
    0)
  (define-fun C4_VM1 () Int
    1)
  (define-fun C5_VM1 () Int
    0)
  (define-fun C3_VM9 () Int
    0)
  (define-fun C1_VM1 () Int
    0)
  (define-fun MemProv1 () Int
    7500)
  (define-fun VM3Type () Int
    186)
  (define-fun C5_VM3 () Int
    0)
  (define-fun C5_VM6 () Int
    0)
  (define-fun C2_VM9 () Int
    0)
  (define-fun C5_VM7 () Int
    0)
  (define-fun PriceProv6 () Int
    210)
  (define-fun ProcProv5 () Int
    8)
  (define-fun StorageProv7 () Int
    4000)
  (define-fun StorageProv2 () Int
    4000)
  (define-fun StorageProv8 () Int
    2000)
  (define-fun VM10Type () Int
    186)
  (define-fun C2_VM4 () Int
    1)
  (define-fun PriceProv8 () Int
    460)
  (define-fun ProcProv10 () Int
    4)
  (define-fun VM2Type () Int
    186)
  (define-fun MemProv2 () Int
    15000)
  (define-fun VM6Type () Int
    182)
  (define-fun VM1Type () Int
    182)
  (define-fun MemProv5 () Int
    15000)
  (define-fun C1_VM2 () Int
    1)
  (define-fun C1_VM5 () Int
    1)
  (define-fun PriceProv10 () Int
    379)
  (define-fun VM4Type () Int
    186)
  (define-fun C5_VM10 () Int
    0)
  (define-fun VM7Type () Int
    186)
  (define-fun C2_VM6 () Int
    0)
  (define-fun VM9Type () Int
    136)
  (define-fun C4_VM2 () Int
    0)
  (define-fun ProcProv2 () Int
    4)
  (define-fun C4_VM7 () Int
    0)
  (define-fun C2_VM3 () Int
    1)
  (define-fun StorageProv6 () Int
    2000)
  (define-fun C2_VM2 () Int
    1)
  (define-fun ProcProv3 () Int
    4)
  (define-fun PriceProv9 () Int
    460)
  (define-fun C3_VM10 () Int
    0)
  (define-fun C3_VM3 () Int
    0)
  (define-fun C2_VM7 () Int
    1)
  (define-fun MemProv8 () Int
    15000)
  (define-fun C3_VM7 () Int
    0)
  (define-fun ProcProv9 () Int
    8)
  (define-fun StorageProv9 () Int
    2000)
  (define-fun ProcProv4 () Int
    4)
  (define-fun MemProv9 () Int
    15000)
  (define-fun C4_VM8 () Int
    1)
  (define-fun PriceProv4 () Int
    379)
  (define-fun C1_VM9 () Int
    1)
  (define-fun ProcProv1 () Int
    4)
  (define-fun PriceProv2 () Int
    379)
  (define-fun C4_VM9 () Int
    0)
  (define-fun PriceProv3 () Int
    379)
  (define-fun ProcProv6 () Int
    4)
  (define-fun C1_VM7 () Int
    1)
  (define-fun C5_VM5 () Int
    1)
  (define-fun C5_VM9 () Int
    1)
  (define-fun VM5Type () Int
    136)
  (define-fun C1_VM10 () Int
    1)
  (define-fun MemProv7 () Int
    15000)
  (define-fun C3_VM2 () Int
    0)
  (define-fun C5_VM2 () Int
    0)
  (define-fun C3_VM8 () Int
    1)
  (define-fun MemProv3 () Int
    15000)
  (define-fun StorageProv1 () Int
    2000)
  (define-fun StorageProv10 () Int
    4000)
  (define-fun C2_VM10 () Int
    1)
  (define-fun C4_VM6 () Int
    1)
  (define-fun MemProv4 () Int
    15000)
  (define-fun C1_VM8 () Int
    0)
  (define-fun PriceProv7 () Int
    379)
  (define-fun MemProv6 () Int
    7500)
  (define-fun C4_VM4 () Int
    0)
  (define-fun ProcProv8 () Int
    8)
  (define-fun PriceProv5 () Int
    460)
  (define-fun C1_VM4 () Int
    1)
  (define-fun ProcProv7 () Int
    4)
  (define-fun C1_VM6 () Int
    0)
  (define-fun MemProv10 () Int
    15000)
  (define-fun StorageProv3 () Int
    4000)
  (define-fun C2_VM5 () Int
    0)
  (define-fun C4_VM3 () Int
    0)
  (define-fun C4_VM5 () Int
    0)
  (define-fun C3_VM6 () Int
    0)
  (define-fun PriceProv1 () Int
    210)
  (define-fun C3_VM1 () Int
    0)
  (define-fun C4_VM10 () Int
    0)
  (define-fun StorageProv4 () Int
    4000)
  (define-fun C2_VM8 () Int
    0)
  (define-fun C5_VM8 () Int
    0)
  (define-fun VM8Type () Int
    136)
  (define-fun C3_VM4 () Int
    0)
  (define-fun C2_VM1 () Int
    0)
  (define-fun C5_VM4 () Int
    0)
  (define-fun C1_VM3 () Int
    1)
  (define-fun StorageProv5 () Int
    2000)
)
(objectives
 ( 2782)
 ((+ 0
   PriceProv1
   PriceProv2
   PriceProv3
   PriceProv4
   PriceProv5
   PriceProv6
   PriceProv7
   PriceProv8
   PriceProv9
   PriceProv10) 3695)
)
(:added-eqs                   19523285
 :arith-eq-adapter            40207561
 :arith-bound-propagations-lp 2260599
 :arith-conflicts             586
 :arith-diseq                 54732240
 :arith-fixed-eqs             216177
 :arith-lower                 65550355
 :arith-make-feasible         8657699
 :arith-max-columns           399
 :arith-max-rows              32
 :arith-upper                 48863000
 :binary-propagations         146501523
 :bv-bit2core                 1382852
 :bv-dynamic-diseqs           55838126
 :bv-dynamic-eqs              34
 :bv->core-eq                 15453
 :conflicts                   125787
 :decisions                   28466694
 :del-clause                  88392724
 :final-checks                5590
 :max-memory                  372.84
 :maxsat-cores                2722
 :memory                      359.18
 :minimized-lits              2031602
 :mk-bool-var                 39703664
 :mk-clause                   88396068
 :mk-clause-binary            22319
 :num-allocs                  63587160079886.00
 :num-checks                  9991
 :pb-conflicts                3781
 :pb-predicates               7
 :pb-propagations             245974
 :pb-resolves                 522
 :propagations                284462324
 :restarts                    359
 :rlimit-count                2036252168
 :time                        266.21
 :total-time                  266.22)
